67
26
0 27 30 32 34 36 39 40 42 44 45 47 48 51 56 57 59 62 65
1 28 30 32 33 35 36 41 42 44 45 46 47 48 51 56 61 62
2 26 28 30 32 33 40 42 44 46 47 48 49 50 56 59 61 62
3 27 28 29 30 32 33 35 37 38 39 40 42 45 46 47 48 52 54 55 56 57 58 62 63
4 26 29 30 31 32 34 35 36 40 42 44 47 50 51 55 64
5 27 29 30 32 33 34 39 40 42 44 48 49 54 56 58 59 62
6 26 27 28 30 31 32 33 35 37 39 44 48 50 51 54 55 58 65
7 26 27 29 32 35 39 42 44 47 48 50 51 55 56 57 59 60 61 62
8 26 28 30 32 34 35 37 40 42 44 46 48 54 56 61 62 65
9 27 28 29 30 33 34 35 39 40 41 42 43 44 47 48 49 51 55 58 59 60 61 64
10 27 30 31 32 34 37 40 42 44 47 51 54 55 56 59 62 63
11 26 27 28 30 32 39 40 44 47 49 51 54 55 56 58 60 61 63
12 26 27 29 30 31 33 34 39 40 43 44 46 48 55 56 58 59 64
13 27 34 37 38 39 42 48 51 54 55 56 58 60 62 64 65
14 26 27 28 29 33 34 35 37 39 42 44 46 55 56 57 58 60 61 63 64 65
15 27 29 31 33 36 40 41 45 47 48 58 59 60 61 62 63 64
16 27 35 36 37 38 40 45 46 48 50 54 55 56 59 64 65
17 28 35 39 40 41 44 48 55 57 59 61 64 65 66
18 26 31 33 34 35 38 42 46 47 49 54 57 61 63 64
19 32 35 36 45 50 59 62 64
20 30 44 47 50 54 55 65
21 29 34 36 37 49 57 64
22 28 31 32 33 34 46 61 62 63
23 35 36
24 43 44 52 53
25 28 36 43 50 59 63
